SCIP version 5.0.0 [precision: 8 byte] [memory: block] [mode: optimized] [LP solver: NONE] [GitHash: 3bbd232]
Copyright (C) 2002-2017 Konrad-Zuse-Zentrum fuer Informationstechnik Berlin (ZIB)

External codes: 
  Readline EditLine w  GNU library for command line editing (gnu.org/s/readline)
  CppAD 20160000.1     Algorithmic Differentiation of C++ algorithms developed by B. Bell (www.coin-or.org/CppAD)
  ZLIB 1.2.5           General purpose compression library by J. Gailly and M. Adler (zlib.net)
  GMP 6.1.2            GNU Multiple Precision Arithmetic Library developed by T. Granlund (gmplib.org)

user parameter file <scip.set> not found - using default parameters

read problem <../../Split_data/output/breast/0/3_sample_breast.logreg>
============

File name	:	../../Split_data/output/breast/0/3_sample_breast.logreg
Problem name 	:	3_sample_breast
Number of data	:	155
Number of var	:	33
The given data has linear independence

[dim=1] time: 0.003682
[dim=2] time: 0.007786
[dim=3] time: 0.012047
[dim=4] time: 0.016193
[dim=5] time: 0.020252
[dim=6] time: 0.023888
[dim=7] time: 0.027368
[dim=8] time: 0.030729
[dim=9] time: 0.034094
[dim=10] time: 0.037057
[dim=11] Time of forward = 0.040185sec.
AIC: 123.656
k: 10

[dim=33] time: 0.013762
[dim=32] time: 0.027132
[dim=31] time: 0.03848
[dim=30] time: 0.047358
[dim=29] time: 0.058687
[dim=28] time: 0.069164
[dim=27] time: 0.078999
[dim=26] time: 0.085589
[dim=25] time: 0.092549
[dim=24] Time of backward = 0.098626sec.
AIC: 114.439
k: 25
